20 90
0 1 47.8
0 2 75.7
0 3 62.3
0 4 83.1
0 5 65.9
0 6 74.4
0 7 72.0
0 8 65.6
0 9 80.0
0 10 3.4
0 11 60.7
0 12 117.6
0 13 82.9
0 14 38.8
0 15 58.7
0 16 41.0
0 17 85.0
0 18 84.9
0 19 50.6
1 2 28.4
1 3 57.9
1 4 36.5
1 5 18.8
1 6 68.3
1 7 25.8
1 8 53.4
1 9 70.8
1 10 47.1
1 11 14.7
1 12 75.9
1 13 41.4
1 14 45.1
1 15 51.8
1 16 31.8
1 17 38.2
1 18 37.5
1 19 32.5
2 3 66.3
2 4 8.6
2 5 9.8
2 6 73.1
2 7 18.4
2 8 58.2
2 9 73.2
2 10 74.6
2 11 15.1
2 12 50.8
2 13 35.6
2 14 63.1
2 15 60.7
2 16 48.6
2 17 20.8
2 18 9.3
2 19 43.2
3 4 67.8
3 5 60.9
3 6 12.3
3 7 77.9
3 8 10.0
3 9 17.6
3 10 59.1
3 11 56.2
3 12 79.5
3 13 96.4
3 14 23.5
3 15 6.1
3 16 28.0
3 17 86.3
3 18 73.0
3 19 25.6
4 5 17.7
4 6 73.4
4 7 25.6
4 8 59.0
4 9 72.7
4 10 81.8
4 11 22.4
4 12 42.5
4 13 41.0
4 14 67.5
4 15 62.5
4 16 53.3
4 17 24.2
4 18 5.8
4 19 46.6
5 6 68.9
5 7 17.7
5 8 53.7
5 9 69.8
5 10 64.9
5 11 5.7
5 12 58.4
5 13 36.6
5 14 55.1
5 15 55.0
5 16 40.5
5 17 25.7
5 18 19.0
5 19 36.4
6 7 86.5
6 8 15.3
6 9 6.4
6 10 71.1
6 11 64.8
6 12 78.3
6 13 105.2
6 14 35.6
6 15 17.4
6 16 39.8
6 17 93.7
6 18 78.9
6 19 35.9
7 8 71.2
7 9 87.5
7 10 71.8
7 11 21.7
7 12 67.7
7 13 18.8
7 14 69.5
7 15 71.9
7 16 55.2
7 17 13.0
7 18 22.4
7 19 52.8
8 9 17.6
8 10 62.5
8 11 49.5
8 12 69.6
8 13 89.9
8 14 27.8
8 15 8.1
8 16 27.0
8 17 78.6
8 18 64.4
8 19 21.2
9 10 76.7
9 11 66.1
9 12 74.3
9 13 106.3
9 14 41.1
9 15 21.9
9 16 43.9
9 17 94.0
9 18 78.3
9 19 38.8
10 11 59.6
10 12 115.6
10 13 83.3
10 14 35.6
10 15 55.5
10 16 38.3
10 17 84.7
10 18 83.8
10 19 47.9
11 12 61.2
11 13 40.4
11 14 49.4
11 15 50.2
11 16 34.9
11 17 31.0
11 18 24.4
11 19 31.3
12 13 80.2
12 14 90.8
12 15 76.7
12 16 79.7
12 17 62.4
12 18 45.4
12 19 70.2
13 14 86.4
13 15 90.4
13 16 72.6
13 17 17.8
13 18 36.2
13 19 71.1
14 15 20.2
14 16 14.5
14 17 80.3
14 18 71.6
14 19 21.5
15 16 22.4
15 17 80.5
15 18 67.6
15 19 19.5
16 17 65.8
16 18 57.2
16 19 9.8
17 18 18.9
17 19 62.0
18 19 51.1
